784 1512
1 2 2
1 29 2
2 3 1
2 30 3
3 4 4
3 31 2
4 5 2
4 32 4
5 6 2
5 33 2
6 7 5
6 34 4
7 8 4
7 35 4
8 9 1
8 36 2
9 10 2
9 37 5
10 11 2
10 38 3
11 12 3
11 39 1
12 13 3
12 40 5
13 14 4
13 41 2
14 15 3
14 42 1
15 16 2
15 43 3
16 17 4
16 44 4
17 18 2
17 45 1
18 19 3
18 46 5
19 20 4
19 47 3
20 21 5
20 48 1
21 22 2
21 49 5
22 23 1
22 50 2
23 24 2
23 51 5
24 25 2
24 52 3
25 26 5
25 53 1
26 27 1
26 54 1
27 28 5
27 55 5
28 56 1
29 30 2
29 57 4
30 31 2
30 58 4
31 32 3
31 59 4
32 33 2
32 60 3
33 34 3
33 61 4
34 35 2
34 62 3
35 36 2
35 63 3
36 37 1
36 64 1
37 38 1
37 65 1
38 39 5
38 66 4
39 40 5
39 67 2
40 41 4
40 68 1
41 42 5
41 69 4
42 43 5
42 70 4
43 44 5
43 71 2
44 45 2
44 72 4
45 46 4
45 73 3
46 47 4
46 74 2
47 48 1
47 75 1
48 49 2
48 76 3
49 50 1
49 77 2
50 51 2
50 78 2
51 52 3
51 79 4
52 53 3
52 80 3
53 54 4
53 81 3
54 55 2
54 82 3
55 56 4
55 83 4
56 84 1
57 58 2
57 85 1
58 59 3
58 86 2
59 60 1
59 87 5
60 61 1
60 88 3
61 62 2
61 89 1
62 63 3
62 90 2
63 64 1
63 91 3
64 65 1
64 92 3
65 66 4
65 93 3
66 67 4
66 94 4
67 68 5
67 95 5
68 69 2
68 96 3
69 70 5
69 97 4
70 71 2
70 98 1
71 72 3
71 99 1
72 73 4
72 100 3
73 74 5
73 101 4
74 75 3
74 102 5
75 76 3
75 103 5
76 77 5
76 104 4
77 78 2
77 105 2
78 79 3
78 106 2
79 80 2
79 107 1
80 81 2
80 108 4
81 82 2
81 109 2
82 83 3
82 110 5
83 84 1
83 111 2
84 112 2
85 86 5
85 113 5
86 87 3
86 114 5
87 88 5
87 115 2
88 89 2
88 116 5
89 90 3
89 117 4
90 91 1
90 118 3
91 92 4
91 119 4
92 93 3
92 120 2
93 94 4
93 121 5
94 95 5
94 122 3
95 96 2
95 123 1
96 97 2
96 124 2
97 98 2
97 125 5
98 99 5
98 126 3
99 100 2
99 127 4
100 101 2
100 128 4
101 102 3
101 129 4
102 103 1
102 130 2
103 104 4
103 131 4
104 105 1
104 132 2
105 106 3
105 133 4
106 107 3
106 134 5
107 108 2
107 135 3
108 109 2
108 136 4
109 110 5
109 137 3
110 111 1
110 138 2
111 112 1
111 139 1
112 140 5
113 114 3
113 141 2
114 115 2
114 142 4
115 116 4
115 143 4
116 117 1
116 144 3
117 118 4
117 145 5
118 119 2
118 146 4
119 120 1
119 147 5
120 121 5
120 148 5
121 122 4
121 149 1
122 123 4
122 150 2
123 124 3
123 151 5
124 125 3
124 152 1
125 126 1
125 153 2
126 127 1
126 154 4
127 128 4
127 155 4
128 129 1
128 156 1
129 130 1
129 157 5
130 131 2
130 158 3
131 132 1
131 159 2
132 133 2
132 160 5
133 134 3
133 161 5
134 135 1
134 162 1
135 136 3
135 163 1
136 137 3
136 164 1
137 138 1
137 165 5
138 139 5
138 166 4
139 140 1
139 167 4
140 168 1
141 142 2
141 169 3
142 143 5
142 170 4
143 144 3
143 171 5
144 145 2
144 172 1
145 146 4
145 173 4
146 147 5
146 174 5
147 148 5
147 175 1
148 149 3
148 176 1
149 150 1
149 177 5
150 151 4
150 178 4
151 152 1
151 179 3
152 153 4
152 180 5
153 154 1
153 181 4
154 155 5
154 182 3
155 156 3
155 183 2
156 157 3
156 184 2
157 158 5
157 185 3
158 159 3
158 186 2
159 160 1
159 187 1
160 161 3
160 188 5
161 162 4
161 189 4
162 163 1
162 190 4
163 164 5
163 191 5
164 165 1
164 192 1
165 166 4
165 193 2
166 167 2
166 194 3
167 168 2
167 195 2
168 196 3
169 170 5
169 197 3
170 171 5
170 198 2
171 172 5
171 199 4
172 173 1
172 200 3
173 174 5
173 201 5
174 175 1
174 202 3
175 176 1
175 203 1
176 177 3
176 204 4
177 178 3
177 205 1
178 179 3
178 206 4
179 180 4
179 207 4
180 181 4
180 208 5
181 182 4
181 209 2
182 183 2
182 210 4
183 184 2
183 211 3
184 185 5
184 212 3
185 186 4
185 213 2
186 187 3
186 214 1
187 188 5
187 215 3
188 189 4
188 216 3
189 190 4
189 217 5
190 191 2
190 218 3
191 192 3
191 219 5
192 193 3
192 220 2
193 194 3
193 221 3
194 195 1
194 222 5
195 196 2
195 223 1
196 224 3
197 198 1
197 225 4
198 199 5
198 226 1
199 200 1
199 227 4
200 201 5
200 228 2
201 202 1
201 229 3
202 203 5
202 230 3
203 204 1
203 231 5
204 205 5
204 232 5
205 206 5
205 233 3
206 207 2
206 234 4
207 208 4
207 235 2
208 209 2
208 236 5
209 210 2
209 237 4
210 211 1
210 238 4
211 212 2
211 239 3
212 213 3
212 240 4
213 214 4
213 241 5
214 215 2
214 242 1
215 216 5
215 243 1
216 217 2
216 244 2
217 218 2
217 245 4
218 219 4
218 246 5
219 220 1
219 247 1
220 221 5
220 248 1
221 222 5
221 249 2
222 223 3
222 250 4
223 224 4
223 251 4
224 252 5
225 226 4
225 253 5
226 227 5
226 254 2
227 228 2
227 255 2
228 229 2
228 256 1
229 230 1
229 257 2
230 231 3
230 258 5
231 232 3
231 259 4
232 233 3
232 260 1
233 234 2
233 261 1
234 235 1
234 262 2
235 236 1
235 263 4
236 237 3
236 264 5
237 238 3
237 265 1
238 239 5
238 266 5
239 240 3
239 267 5
240 241 2
240 268 2
241 242 5
241 269 5
242 243 1
242 270 2
243 244 1
243 271 4
244 245 2
244 272 2
245 246 2
245 273 2
246 247 4
246 274 1
247 248 3
247 275 4
248 249 5
248 276 2
249 250 1
249 277 5
250 251 4
250 278 3
251 252 2
251 279 2
252 280 4
253 254 5
253 281 5
254 255 4
254 282 4
255 256 1
255 283 1
256 257 1
256 284 4
257 258 5
257 285 2
258 259 3
258 286 5
259 260 2
259 287 4
260 261 4
260 288 3
261 262 5
261 289 1
262 263 4
262 290 1
263 264 5
263 291 2
264 265 1
264 292 2
265 266 1
265 293 1
266 267 4
266 294 5
267 268 3
267 295 2
268 269 3
268 296 5
269 270 2
269 297 4
270 271 2
270 298 1
271 272 2
271 299 3
272 273 5
272 300 4
273 274 2
273 301 1
274 275 1
274 302 3
275 276 4
275 303 2
276 277 4
276 304 1
277 278 1
277 305 2
278 279 3
278 306 3
279 280 4
279 307 5
280 308 5
281 282 1
281 309 1
282 283 3
282 310 1
283 284 5
283 311 3
284 285 1
284 312 4
285 286 5
285 313 2
286 287 5
286 314 3
287 288 5
287 315 1
288 289 4
288 316 4
289 290 2
289 317 2
290 291 4
290 318 4
291 292 4
291 319 3
292 293 5
292 320 1
293 294 3
293 321 3
294 295 5
294 322 5
295 296 1
295 323 1
296 297 2
296 324 1
297 298 5
297 325 1
298 299 5
298 326 3
299 300 3
299 327 3
300 301 5
300 328 3
301 302 4
301 329 1
302 303 1
302 330 2
303 304 5
303 331 4
304 305 1
304 332 4
305 306 2
305 333 5
306 307 4
306 334 3
307 308 1
307 335 1
308 336 3
309 310 4
309 337 4
310 311 5
310 338 4
311 312 1
311 339 5
312 313 4
312 340 5
313 314 1
313 341 3
314 315 5
314 342 3
315 316 2
315 343 1
316 317 2
316 344 5
317 318 4
317 345 1
318 319 5
318 346 5
319 320 2
319 347 4
320 321 4
320 348 3
321 322 5
321 349 1
322 323 3
322 350 2
323 324 5
323 351 1
324 325 4
324 352 2
325 326 3
325 353 1
326 327 2
326 354 1
327 328 2
327 355 5
328 329 3
328 356 1
329 330 1
329 357 1
330 331 2
330 358 3
331 332 3
331 359 3
332 333 3
332 360 4
333 334 3
333 361 1
334 335 4
334 362 1
335 336 1
335 363 5
336 364 4
337 338 5
337 365 2
338 339 4
338 366 1
339 340 3
339 367 4
340 341 1
340 368 2
341 342 2
341 369 5
342 343 4
342 370 3
343 344 4
343 371 5
344 345 2
344 372 1
345 346 3
345 373 3
346 347 3
346 374 1
347 348 2
347 375 3
348 349 5
348 376 5
349 350 5
349 377 3
350 351 2
350 378 2
351 352 4
351 379 5
352 353 1
352 380 5
353 354 5
353 381 5
354 355 4
354 382 2
355 356 4
355 383 2
356 357 1
356 384 2
357 358 2
357 385 2
358 359 5
358 386 2
359 360 4
359 387 5
360 361 1
360 388 2
361 362 2
361 389 2
362 363 2
362 390 4
363 364 4
363 391 5
364 392 2
365 366 4
365 393 4
366 367 4
366 394 2
367 368 4
367 395 3
368 369 1
368 396 1
369 370 4
369 397 4
370 371 4
370 398 1
371 372 1
371 399 5
372 373 2
372 400 1
373 374 2
373 401 2
374 375 4
374 402 4
375 376 3
375 403 2
376 377 5
376 404 4
377 378 2
377 405 1
378 379 4
378 406 1
379 380 5
379 407 2
380 381 3
380 408 3
381 382 4
381 409 1
382 383 4
382 410 2
383 384 5
383 411 5
384 385 2
384 412 1
385 386 3
385 413 2
386 387 2
386 414 1
387 388 3
387 415 2
388 389 5
388 416 2
389 390 4
389 417 5
390 391 4
390 418 4
391 392 1
391 419 5
392 420 2
393 394 1
393 421 3
394 395 1
394 422 3
395 396 1
395 423 4
396 397 1
396 424 4
397 398 1
397 425 3
398 399 2
398 426 3
399 400 3
399 427 1
400 401 1
400 428 5
401 402 4
401 429 2
402 403 4
402 430 5
403 404 4
403 431 4
404 405 2
404 432 1
405 406 3
405 433 5
406 407 2
406 434 2
407 408 1
407 435 4
408 409 5
408 436 4
409 410 2
409 437 5
410 411 3
410 438 2
411 412 4
411 439 5
412 413 5
412 440 4
413 414 3
413 441 4
414 415 4
414 442 4
415 416 2
415 443 3
416 417 2
416 444 2
417 418 1
417 445 3
418 419 5
418 446 1
419 420 1
419 447 2
420 448 4
421 422 1
421 449 2
422 423 3
422 450 3
423 424 1
423 451 1
424 425 2
424 452 5
425 426 4
425 453 4
426 427 5
426 454 3
427 428 5
427 455 2
428 429 5
428 456 5
429 430 5
429 457 1
430 431 1
430 458 1
431 432 2
431 459 4
432 433 1
432 460 3
433 434 2
433 461 3
434 435 5
434 462 4
435 436 1
435 463 4
436 437 4
436 464 3
437 438 4
437 465 5
438 439 1
438 466 5
439 440 5
439 467 2
440 441 1
440 468 4
441 442 2
441 469 5
442 443 1
442 470 2
443 444 3
443 471 2
444 445 3
444 472 5
445 446 1
445 473 3
446 447 2
446 474 2
447 448 3
447 475 3
448 476 1
449 450 3
449 477 4
450 451 2
450 478 4
451 452 3
451 479 5
452 453 2
452 480 2
453 454 5
453 481 2
454 455 4
454 482 3
455 456 1
455 483 1
456 457 1
456 484 4
457 458 4
457 485 4
458 459 1
458 486 2
459 460 1
459 487 2
460 461 1
460 488 4
461 462 4
461 489 5
462 463 5
462 490 3
463 464 5
463 491 1
464 465 2
464 492 4
465 466 5
465 493 5
466 467 5
466 494 2
467 468 3
467 495 1
468 469 3
468 496 3
469 470 3
469 497 2
470 471 2
470 498 2
471 472 2
471 499 1
472 473 4
472 500 1
473 474 4
473 501 4
474 475 4
474 502 1
475 476 1
475 503 3
476 504 4
477 478 1
477 505 5
478 479 1
478 506 4
479 480 1
479 507 2
480 481 2
480 508 2
481 482 2
481 509 4
482 483 5
482 510 4
483 484 5
483 511 1
484 485 1
484 512 4
485 486 2
485 513 5
486 487 3
486 514 2
487 488 5
487 515 2
488 489 2
488 516 4
489 490 4
489 517 4
490 491 1
490 518 4
491 492 3
491 519 1
492 493 3
492 520 4
493 494 3
493 521 2
494 495 5
494 522 3
495 496 2
495 523 3
496 497 5
496 524 2
497 498 2
497 525 2
498 499 1
498 526 4
499 500 3
499 527 5
500 501 1
500 528 1
501 502 1
501 529 1
502 503 3
502 530 1
503 504 1
503 531 5
504 532 5
505 506 1
505 533 2
506 507 4
506 534 2
507 508 3
507 535 1
508 509 5
508 536 1
509 510 2
509 537 3
510 511 4
510 538 1
511 512 3
511 539 1
512 513 5
512 540 1
513 514 1
513 541 5
514 515 4
514 542 5
515 516 2
515 543 2
516 517 3
516 544 2
517 518 2
517 545 1
518 519 2
518 546 5
519 520 5
519 547 4
520 521 1
520 548 5
521 522 1
521 549 1
522 523 5
522 550 2
523 524 3
523 551 1
524 525 4
524 552 2
525 526 1
525 553 3
526 527 3
526 554 2
527 528 5
527 555 1
528 529 1
528 556 4
529 530 5
529 557 1
530 531 4
530 558 3
531 532 5
531 559 5
532 560 5
533 534 2
533 561 2
534 535 1
534 562 1
535 536 3
535 563 4
536 537 2
536 564 1
537 538 1
537 565 5
538 539 3
538 566 3
539 540 5
539 567 5
540 541 3
540 568 4
541 542 1
541 569 2
542 543 1
542 570 4
543 544 5
543 571 4
544 545 4
544 572 5
545 546 3
545 573 1
546 547 5
546 574 1
547 548 4
547 575 3
548 549 4
548 576 2
549 550 2
549 577 4
550 551 4
550 578 2
551 552 1
551 579 2
552 553 5
552 580 2
553 554 1
553 581 4
554 555 5
554 582 5
555 556 1
555 583 3
556 557 4
556 584 3
557 558 3
557 585 5
558 559 3
558 586 5
559 560 3
559 587 4
560 588 2
561 562 4
561 589 4
562 563 3
562 590 3
563 564 2
563 591 5
564 565 1
564 592 1
565 566 5
565 593 5
566 567 1
566 594 5
567 568 1
567 595 1
568 569 2
568 596 1
569 570 4
569 597 5
570 571 2
570 598 4
571 572 3
571 599 3
572 573 1
572 600 3
573 574 2
573 601 5
574 575 1
574 602 4
575 576 3
575 603 3
576 577 3
576 604 4
577 578 1
577 605 1
578 579 4
578 606 2
579 580 3
579 607 5
580 581 4
580 608 5
581 582 1
581 609 1
582 583 4
582 610 3
583 584 5
583 611 3
584 585 4
584 612 3
585 586 4
585 613 2
586 587 5
586 614 4
587 588 5
587 615 3
588 616 2
589 590 4
589 617 1
590 591 4
590 618 1
591 592 4
591 619 4
592 593 2
592 620 1
593 594 3
593 621 4
594 595 4
594 622 5
595 596 2
595 623 2
596 597 2
596 624 1
597 598 2
597 625 2
598 599 5
598 626 1
599 600 5
599 627 2
600 601 4
600 628 3
601 602 3
601 629 4
602 603 5
602 630 4
603 604 4
603 631 4
604 605 3
604 632 4
605 606 3
605 633 2
606 607 1
606 634 2
607 608 5
607 635 3
608 609 2
608 636 3
609 610 2
609 637 5
610 611 3
610 638 2
611 612 5
611 639 2
612 613 1
612 640 2
613 614 5
613 641 5
614 615 2
614 642 1
615 616 4
615 643 2
616 644 1
617 618 5
617 645 3
618 619 3
618 646 4
619 620 2
619 647 2
620 621 4
620 648 4
621 622 5
621 649 3
622 623 2
622 650 2
623 624 4
623 651 2
624 625 4
624 652 5
625 626 1
625 653 2
626 627 2
626 654 1
627 628 1
627 655 3
628 629 3
628 656 1
629 630 3
629 657 1
630 631 3
630 658 3
631 632 2
631 659 2
632 633 4
632 660 3
633 634 4
633 661 2
634 635 4
634 662 5
635 636 1
635 663 4
636 637 5
636 664 3
637 638 4
637 665 5
638 639 3
638 666 4
639 640 4
639 667 1
640 641 1
640 668 2
641 642 2
641 669 3
642 643 4
642 670 1
643 644 3
643 671 4
644 672 5
645 646 3
645 673 2
646 647 4
646 674 2
647 648 3
647 675 5
648 649 1
648 676 4
649 650 1
649 677 2
650 651 2
650 678 5
651 652 3
651 679 3
652 653 1
652 680 2
653 654 5
653 681 5
654 655 1
654 682 3
655 656 5
655 683 3
656 657 3
656 684 4
657 658 5
657 685 4
658 659 4
658 686 4
659 660 5
659 687 3
660 661 4
660 688 2
661 662 3
661 689 4
662 663 5
662 690 2
663 664 3
663 691 5
664 665 4
664 692 1
665 666 5
665 693 5
666 667 4
666 694 1
667 668 3
667 695 5
668 669 3
668 696 2
669 670 1
669 697 2
670 671 2
670 698 1
671 672 3
671 699 5
672 700 4
673 674 5
673 701 1
674 675 2
674 702 4
675 676 3
675 703 4
676 677 3
676 704 2
677 678 5
677 705 1
678 679 1
678 706 2
679 680 3
679 707 2
680 681 4
680 708 3
681 682 3
681 709 3
682 683 3
682 710 3
683 684 2
683 711 5
684 685 3
684 712 2
685 686 5
685 713 3
686 687 5
686 714 3
687 688 3
687 715 5
688 689 2
688 716 4
689 690 3
689 717 2
690 691 1
690 718 5
691 692 2
691 719 3
692 693 1
692 720 1
693 694 5
693 721 5
694 695 3
694 722 3
695 696 4
695 723 5
696 697 1
696 724 5
697 698 3
697 725 2
698 699 5
698 726 1
699 700 1
699 727 1
700 728 5
701 702 3
701 729 5
702 703 3
702 730 3
703 704 3
703 731 3
704 705 4
704 732 5
705 706 5
705 733 2
706 707 5
706 734 1
707 708 4
707 735 5
708 709 4
708 736 4
709 710 4
709 737 5
710 711 4
710 738 3
711 712 5
711 739 2
712 713 4
712 740 5
713 714 5
713 741 4
714 715 2
714 742 3
715 716 1
715 743 3
716 717 5
716 744 4
717 718 3
717 745 5
718 719 3
718 746 2
719 720 3
719 747 4
720 721 4
720 748 5
721 722 5
721 749 3
722 723 4
722 750 2
723 724 3
723 751 1
724 725 4
724 752 3
725 726 3
725 753 1
726 727 1
726 754 5
727 728 4
727 755 4
728 756 5
729 730 5
729 757 3
730 731 2
730 758 3
731 732 5
731 759 1
732 733 3
732 760 5
733 734 4
733 761 4
734 735 3
734 762 4
735 736 1
735 763 3
736 737 1
736 764 3
737 738 5
737 765 4
738 739 4
738 766 4
739 740 4
739 767 1
740 741 1
740 768 5
741 742 1
741 769 5
742 743 3
742 770 4
743 744 1
743 771 1
744 745 2
744 772 1
745 746 4
745 773 4
746 747 2
746 774 5
747 748 3
747 775 3
748 749 5
748 776 2
749 750 2
749 777 5
750 751 3
750 778 4
751 752 1
751 779 2
752 753 1
752 780 5
753 754 5
753 781 3
754 755 4
754 782 3
755 756 1
755 783 4
756 784 5
757 758 5
758 759 4
759 760 1
760 761 1
761 762 5
762 763 1
763 764 4
764 765 2
765 766 2
766 767 1
767 768 4
768 769 4
769 770 3
770 771 5
771 772 3
772 773 3
773 774 1
774 775 2
775 776 5
776 777 2
777 778 2
778 779 5
779 780 2
780 781 1
781 782 2
782 783 4
783 784 2
